71 300 105 142 148 115 105 122 121 147 150 105 103 138 136 105 135 119 102 149 137 109 130 120 135 147 101 127 121 136 107 125 142 112 142 113 101 147 135 122 143 135 102 120 147 138 125 131 131 128 130 143 111 134 137 146 131 112 147 126 149 103 125 140 115 116 127 142 138 111 113 104 120 